NAME          
ROWS
 N  OBJ
 L  c1
 L  c2
 L  c3
 L  c4
COLUMNS
    MARKER    'MARKER'                 'INTORG'
    x[1]      c1        715
    x[1]      c2        98
    x[1]      c3        881
    x[1]      c4        53
    x[1]      OBJ       -104
    x[2]      c1        978
    x[2]      c2        920
    x[2]      c3        67
    x[2]      c4        640
    x[2]      OBJ       -99
    x[3]      c1        607
    x[3]      c2        503
    x[3]      c3        820
    x[3]      c4        987
    x[3]      OBJ       -178
    x[4]      c1        581
    x[4]      c2        338
    x[4]      c3        915
    x[4]      c4        425
    x[4]      OBJ       -731
    x[5]      c1        192
    x[5]      c2        467
    x[5]      c3        224
    x[5]      c4        113
    x[5]      OBJ       -504
    x[6]      c1        319
    x[6]      c2        337
    x[6]      c3        965
    x[6]      c4        526
    x[6]      OBJ       -9
    x[7]      c1        219
    x[7]      c2        960
    x[7]      c3        352
    x[7]      c4        981
    x[7]      OBJ       -808
    x[8]      c1        614
    x[8]      c2        275
    x[8]      c3        420
    x[8]      c4        388
    x[8]      OBJ       -712
    x[9]      c1        710
    x[9]      c2        239
    x[9]      c3        245
    x[9]      c4        167
    x[9]      OBJ       -364
    x[10]     c1        635
    x[10]     c2        679
    x[10]     c3        720
    x[10]     c4        342
    x[10]     OBJ       -428
    x[11]     c1        946
    x[11]     c2        307
    x[11]     c3        664
    x[11]     c4        672
    x[11]     OBJ       -901
    x[12]     c1        42
    x[12]     c2        834
    x[12]     c3        447
    x[12]     c4        56
    x[12]     OBJ       -160
    x[13]     c1        472
    x[13]     c2        239
    x[13]     c3        907
    x[13]     c4        601
    x[13]     OBJ       -85
    x[14]     c1        746
    x[14]     c2        150
    x[14]     c3        981
    x[14]     c4        5
    x[14]     OBJ       -177
    x[15]     c1        448
    x[15]     c2        811
    x[15]     c3        765
    x[15]     c4        783
    x[15]     OBJ       -986
    x[16]     c1        679
    x[16]     c2        145
    x[16]     c3        183
    x[16]     c4        728
    x[16]     OBJ       -514
    x[17]     c1        122
    x[17]     c2        308
    x[17]     c3        595
    x[17]     c4        327
    x[17]     OBJ       -817
    x[18]     c1        46
    x[18]     c2        505
    x[18]     c3        43
    x[18]     c4        766
    x[18]     OBJ       -214
    x[19]     c1        73
    x[19]     c2        793
    x[19]     c3        839
    x[19]     c4        327
    x[19]     OBJ       -720
    x[20]     c1        11
    x[20]     c2        209
    x[20]     c3        190
    x[20]     c4        291
    x[20]     OBJ       -866
    x[21]     c1        662
    x[21]     c2        202
    x[21]     c3        383
    x[21]     c4        982
    x[21]     OBJ       -520
    x[22]     c1        399
    x[22]     c2        607
    x[22]     c3        831
    x[22]     c4        835
    x[22]     OBJ       -634
    x[23]     c1        363
    x[23]     c2        343
    x[23]     c3        208
    x[23]     c4        740
    x[23]     OBJ       -541
    x[24]     c1        43
    x[24]     c2        947
    x[24]     c3        394
    x[24]     c4        464
    x[24]     OBJ       -644
    x[25]     c1        217
    x[25]     c2        399
    x[25]     c3        651
    x[25]     c4        938
    x[25]     OBJ       -588
    x[26]     c1        119
    x[26]     c2        266
    x[26]     c3        687
    x[26]     c4        653
    x[26]     OBJ       -402
    x[27]     c1        111
    x[27]     c2        595
    x[27]     c3        994
    x[27]     c4        894
    x[27]     OBJ       -743
    x[28]     c1        928
    x[28]     c2        556
    x[28]     c3        128
    x[28]     c4        936
    x[28]     OBJ       -894
    x[29]     c1        280
    x[29]     c2        694
    x[29]     c3        594
    x[29]     c4        80
    x[29]     OBJ       -345
    x[30]     c1        710
    x[30]     c2        399
    x[30]     c3        930
    x[30]     c4        185
    x[30]     OBJ       -254
    x[31]     c1        111
    x[31]     c2        75
    x[31]     c3        111
    x[31]     c4        734
    x[31]     OBJ       -140
    x[32]     c1        615
    x[32]     c2        445
    x[32]     c3        485
    x[32]     c4        963
    x[32]     OBJ       -765
    x[33]     c1        693
    x[33]     c2        288
    x[33]     c3        422
    x[33]     c4        554
    x[33]     OBJ       -932
    x[34]     c1        678
    x[34]     c2        863
    x[34]     c3        952
    x[34]     c4        105
    x[34]     OBJ       -663
    x[35]     c1        98
    x[35]     c2        474
    x[35]     c3        822
    x[35]     c4        595
    x[35]     OBJ       -904
RHS
    rhs       c1        7591
    rhs       c2        8135
    rhs       c3        9908
    rhs       c4        9418
RANGES
BOUNDS
 BV bounds    x[1]
 BV bounds    x[2]
 BV bounds    x[3]
 BV bounds    x[4]
 BV bounds    x[5]
 BV bounds    x[6]
 BV bounds    x[7]
 BV bounds    x[8]
 BV bounds    x[9]
 BV bounds    x[10]
 BV bounds    x[11]
 BV bounds    x[12]
 BV bounds    x[13]
 BV bounds    x[14]
 BV bounds    x[15]
 BV bounds    x[16]
 BV bounds    x[17]
 BV bounds    x[18]
 BV bounds    x[19]
 BV bounds    x[20]
 BV bounds    x[21]
 BV bounds    x[22]
 BV bounds    x[23]
 BV bounds    x[24]
 BV bounds    x[25]
 BV bounds    x[26]
 BV bounds    x[27]
 BV bounds    x[28]
 BV bounds    x[29]
 BV bounds    x[30]
 BV bounds    x[31]
 BV bounds    x[32]
 BV bounds    x[33]
 BV bounds    x[34]
 BV bounds    x[35]
ENDATA
